p cnf 14 19
-2 -14 -7 3 1 5 0
14 3 11 12 0
-5 2 0
-6 10 2 12 4 -11 9 -1 3 -5 7 14 0
9 -13 -8 2 0
7 -2 11 12 13 -4 3 -5 0
14 5 -13 0
5 10 0
4 3 2 0
-5 -4 13 -2 -11 -10 3 0
-10 14 -12 3 -13 -7 -8 6 -1 -11 -4 2 5 -9 0
-6 -1 0
11 -10 0
-7 -12 -9 4 0
-13 -3 5 1 0
-12 3 0
10 12 0
-8 6 -13 14 0
-3 1 10 -7 14 5 -4 -12 -8 0
